92 27 65 90 26 
1 33 51 49 19 97 93 
18 5 14 61 16 83 
21 75 39 24 29 71 34 50 
85 62 30 20 10 70 77 
88 89 99 95 6 13 2 98 
69 76 35 81 68 80 58 
45 15 22 55 4 25 
3 84 
12 11 8 100 
73 38 91 86 48 
82 94 43 56 
57 67 54 
72 78 60 46 
36 87 37 31 
63 53 40 
42 23 66 
28 79 9 74 
44 41 17 96 
52 47 7 64 32 59 

